nK = 873;
nT = 4;
nI = 7;
L = 35;
TT = 230;
np = 1;
nc = 3;
b = [48, 20, 44, 68, 21, 57, 22];
d = [114, 43, 85, 136, 34, 88, 70];
m = [1.6, 1.4, 2.3, 1.9, 2.3, 1.4, 2.3];
pt = [0.25, 0.33, 0.35, 0.31];
st = [11.75, 15.84, 17.15, 13.64];
arc = {<1, 0, 1, 1, 0, 0, 0, [1, 1, 1, 1]>, <2, 1, 2, 1, 0, 0, 0, [1, 1, 1, 1]>, <3, 2, 3, 1, 0, 0, 0, [1, 1, 1, 1]>, <4, 3, 4, 1, 0, 0, 0, [1, 1, 1, 1]>, <5, 4, 5, 1, 0, 0, 0, [1, 1, 1, 1]>, <6, 5, 6, 1, 0, 0, 0, [1, 1, 1, 1]>, <7, 6, 7, 1, 0, 0, 0, [1, 1, 1, 1]>, <8, 7, 8, 1, 0, 0, 0, [1, 1, 1, 1]>, <9, 8, 9, 1, 0, 0, 0, [1, 1, 1, 1]>, <10, 9, 10, 1, 0, 0, 0, [1, 1, 1, 1]>, <11, 10, 11, 1, 0, 0, 0, [1, 1, 1, 1]>, <12, 11, 12, 1, 0, 0, 0, [1, 1, 1, 1]>, <13, 12, 13, 1, 0, 0, 0, [1, 1, 1, 1]>, <14, 13, 14, 1, 0, 0, 0, [1, 1, 1, 1]>, <15, 14, 15, 1, 0, 0, 0, [1, 1, 1, 1]>, <16, 15, 16, 1, 0, 0, 0, [1, 1, 1, 1]>, <17, 16, 17, 1, 0, 0, 0, [1, 1, 1, 1]>, <18, 17, 18, 1, 0, 0, 0, [1, 1, 1, 1]>, <19, 18, 19, 1, 0, 0, 0, [1, 1, 1, 1]>, <20, 19, 20, 1, 0, 0, 0, [1, 1, 1, 1]>, <21, 20, 21, 1, 0, 0, 0, [1, 1, 1, 1]>, <22, 21, 22, 1, 0, 0, 0, [1, 1, 1, 1]>, <23, 22, 23, 1, 0, 0, 0, [1, 1, 1, 1]>, <24, 23, 24, 1, 0, 0, 0, [1, 1, 1, 1]>, <25, 24, 25, 1, 0, 0, 0, [1, 1, 1, 1]>, <26, 25, 26, 1, 0, 0, 0, [1, 1, 1, 1]>, <27, 26, 27, 1, 0, 0, 0, [1, 1, 1, 1]>, <28, 27, 28, 1, 0, 0, 0, [1, 1, 1, 1]>, <29, 28, 29, 1, 0, 0, 0, [1, 1, 1, 1]>, <30, 29, 30, 1, 0, 0, 0, [1, 1, 1, 1]>, <31, 30, 31, 1, 0, 0, 0, [1, 1, 1, 1]>, <32, 31, 32, 1, 0, 0, 0, [1, 1, 1, 1]>, <33, 32, 33, 1, 0, 0, 0, [1, 1, 1, 1]>, <34, 33, 34, 1, 0, 0, 0, [1, 1, 1, 1]>, <35, 34, 35, 1, 0, 0, 0, [1, 1, 1, 1]>, <36, 0, 18, 18, 1, 0, 1, [1, 0, 0, 1]>, <37, 1, 19, 18, 1, 0, 1, [1, 0, 0, 1]>, <38, 2, 20, 18, 1, 0, 1, [1, 0, 0, 1]>, <39, 3, 21, 18, 1, 0, 1, [1, 0, 0, 1]>, <40, 4, 22, 18, 1, 0, 1, [1, 0, 0, 1]>, <41, 5, 23, 18, 1, 0, 1, [1, 0, 0, 1]>, <42, 6, 24, 18, 1, 0, 1, [1, 0, 0, 1]>, <43, 8, 26, 18, 1, 0, 1, [1, 0, 0, 1]>, <44, 9, 27, 18, 1, 0, 1, [1, 0, 0, 1]>, <45, 10, 28, 18, 1, 0, 1, [1, 0, 0, 1]>, <46, 11, 29, 18, 1, 0, 1, [1, 0, 0, 1]>, <47, 12, 30, 18, 1, 0, 1, [1, 0, 0, 1]>, <48, 13, 31, 18, 1, 0, 1, [1, 0, 0, 1]>, <49, 14, 32, 18, 1, 0, 1, [1, 0, 0, 1]>, <50, 15, 33, 18, 1, 0, 1, [1, 0, 0, 1]>, <51, 16, 34, 18, 1, 0, 1, [1, 0, 0, 1]>, <52, 17, 35, 18, 1, 0, 1, [1, 0, 0, 1]>, <53, 0, 18, 18, 2, 0, 1, [1, 0, 0, 1]>, <54, 1, 19, 18, 2, 0, 1, [1, 0, 0, 1]>, <55, 2, 20, 18, 2, 0, 1, [1, 0, 0, 1]>, <56, 3, 21, 18, 2, 0, 1, [1, 0, 0, 1]>, <57, 4, 22, 18, 2, 0, 1, [1, 0, 0, 1]>, <58, 5, 23, 18, 2, 0, 1, [1, 0, 0, 1]>, <59, 6, 24, 18, 2, 0, 1, [1, 0, 0, 1]>, <60, 8, 26, 18, 2, 0, 1, [1, 0, 0, 1]>, <61, 9, 27, 18, 2, 0, 1, [1, 0, 0, 1]>, <62, 10, 28, 18, 2, 0, 1, [1, 0, 0, 1]>, <63, 11, 29, 18, 2, 0, 1, [1, 0, 0, 1]>, <64, 12, 30, 18, 2, 0, 1, [1, 0, 0, 1]>, <65, 13, 31, 18, 2, 0, 1, [1, 0, 0, 1]>, <66, 14, 32, 18, 2, 0, 1, [1, 0, 0, 1]>, <67, 15, 33, 18, 2, 0, 1, [1, 0, 0, 1]>, <68, 16, 34, 18, 2, 0, 1, [1, 0, 0, 1]>, <69, 17, 35, 18, 2, 0, 1, [1, 0, 0, 1]>, <70, 0, 21, 21, 3, 0, 0, [0, 0, 1, 1]>, <71, 1, 22, 21, 3, 0, 0, [0, 0, 1, 1]>, <72, 2, 23, 21, 3, 0, 0, [0, 0, 1, 1]>, <73, 3, 24, 21, 3, 0, 0, [0, 0, 1, 1]>, <74, 4, 25, 21, 3, 0, 0, [0, 0, 1, 1]>, <75, 5, 26, 21, 3, 0, 0, [0, 0, 1, 1]>, <76, 6, 27, 21, 3, 0, 0, [0, 0, 1, 1]>, <77, 7, 28, 21, 3, 0, 0, [0, 0, 1, 1]>, <78, 8, 29, 21, 3, 0, 0, [0, 0, 1, 1]>, <79, 9, 30, 21, 3, 0, 0, [0, 0, 1, 1]>, <80, 10, 31, 21, 3, 0, 0, [0, 0, 1, 1]>, <81, 11, 32, 21, 3, 0, 0, [0, 0, 1, 1]>, <82, 12, 33, 21, 3, 0, 0, [0, 0, 1, 1]>, <83, 13, 34, 21, 3, 0, 0, [0, 0, 1, 1]>, <84, 14, 35, 21, 3, 0, 0, [0, 0, 1, 1]>, <85, 0, 22, 22, 4, 0, 0, [0, 1, 1, 0]>, <86, 1, 23, 22, 4, 0, 0, [0, 1, 1, 0]>, <87, 2, 24, 22, 4, 0, 0, [0, 1, 1, 0]>, <88, 3, 25, 22, 4, 0, 0, [0, 1, 1, 0]>, <89, 4, 26, 22, 4, 0, 0, [0, 1, 1, 0]>, <90, 5, 27, 22, 4, 0, 0, [0, 1, 1, 0]>, <91, 6, 28, 22, 4, 0, 0, [0, 1, 1, 0]>, <92, 7, 29, 22, 4, 0, 0, [0, 1, 1, 0]>, <93, 8, 30, 22, 4, 0, 0, [0, 1, 1, 0]>, <94, 9, 31, 22, 4, 0, 0, [0, 1, 1, 0]>, <95, 10, 32, 22, 4, 0, 0, [0, 1, 1, 0]>, <96, 11, 33, 22, 4, 0, 0, [0, 1, 1, 0]>, <97, 12, 34, 22, 4, 0, 0, [0, 1, 1, 0]>, <98, 13, 35, 22, 4, 0, 0, [0, 1, 1, 0]>, <99, 0, 17, 17, 5, 0, 0, [0, 0, 1, 1]>, <100, 1, 18, 17, 5, 0, 0, [0, 0, 1, 1]>, <101, 2, 19, 17, 5, 0, 0, [0, 0, 1, 1]>, <102, 3, 20, 17, 5, 0, 0, [0, 0, 1, 1]>, <103, 4, 21, 17, 5, 0, 0, [0, 0, 1, 1]>, <104, 5, 22, 17, 5, 0, 0, [0, 0, 1, 1]>, <105, 6, 23, 17, 5, 0, 0, [0, 0, 1, 1]>, <106, 9, 26, 17, 5, 0, 0, [0, 0, 1, 1]>, <107, 10, 27, 17, 5, 0, 0, [0, 0, 1, 1]>, <108, 11, 28, 17, 5, 0, 0, [0, 0, 1, 1]>, <109, 12, 29, 17, 5, 0, 0, [0, 0, 1, 1]>, <110, 13, 30, 17, 5, 0, 0, [0, 0, 1, 1]>, <111, 14, 31, 17, 5, 0, 0, [0, 0, 1, 1]>, <112, 15, 32, 17, 5, 0, 0, [0, 0, 1, 1]>, <113, 16, 33, 17, 5, 0, 0, [0, 0, 1, 1]>, <114, 17, 34, 17, 5, 0, 0, [0, 0, 1, 1]>, <115, 18, 35, 17, 5, 0, 0, [0, 0, 1, 1]>, <116, 0, 20, 20, 6, 0, 1, [0, 0, 1, 1]>, <117, 1, 21, 20, 6, 0, 1, [0, 0, 1, 1]>, <118, 2, 22, 20, 6, 0, 1, [0, 0, 1, 1]>, <119, 3, 23, 20, 6, 0, 1, [0, 0, 1, 1]>, <120, 4, 24, 20, 6, 0, 1, [0, 0, 1, 1]>, <121, 5, 25, 20, 6, 0, 1, [0, 0, 1, 1]>, <122, 6, 26, 20, 6, 0, 1, [0, 0, 1, 1]>, <123, 7, 27, 20, 6, 0, 1, [0, 0, 1, 1]>, <124, 8, 28, 20, 6, 0, 1, [0, 0, 1, 1]>, <125, 9, 29, 20, 6, 0, 1, [0, 0, 1, 1]>, <126, 10, 30, 20, 6, 0, 1, [0, 0, 1, 1]>, <127, 11, 31, 20, 6, 0, 1, [0, 0, 1, 1]>, <128, 12, 32, 20, 6, 0, 1, [0, 0, 1, 1]>, <129, 13, 33, 20, 6, 0, 1, [0, 0, 1, 1]>, <130, 14, 34, 20, 6, 0, 1, [0, 0, 1, 1]>, <131, 15, 35, 20, 6, 0, 1, [0, 0, 1, 1]>, <132, 1, 17, 16, 7, 0, 1, [0, 0, 1, 1]>, <133, 2, 18, 16, 7, 0, 1, [0, 0, 1, 1]>, <134, 3, 19, 16, 7, 0, 1, [0, 0, 1, 1]>, <135, 4, 20, 16, 7, 0, 1, [0, 0, 1, 1]>, <136, 5, 21, 16, 7, 0, 1, [0, 0, 1, 1]>, <137, 6, 22, 16, 7, 0, 1, [0, 0, 1, 1]>, <138, 10, 26, 16, 7, 0, 1, [0, 0, 1, 1]>, <139, 11, 27, 16, 7, 0, 1, [0, 0, 1, 1]>, <140, 12, 28, 16, 7, 0, 1, [0, 0, 1, 1]>, <141, 13, 29, 16, 7, 0, 1, [0, 0, 1, 1]>, <142, 14, 30, 16, 7, 0, 1, [0, 0, 1, 1]>, <143, 15, 31, 16, 7, 0, 1, [0, 0, 1, 1]>, <144, 16, 32, 16, 7, 0, 1, [0, 0, 1, 1]>, <145, 17, 33, 16, 7, 0, 1, [0, 0, 1, 1]>, <146, 18, 34, 16, 7, 0, 1, [0, 0, 1, 1]>, <147, 19, 35, 16, 7, 0, 1, [0, 0, 1, 1]>};
